Route #1: 1 2 8 12 34 26 9 5 1 
Route #2: 1 23 36 42 39 17 7 16 10 31 38 1 
Route #3: 1 1 37 28 14 19 15 1 
Route #4: 1 6 24 22 13 30 3 1 
Route #5: 1 18 33 21 20 40 27 25 32 29 4 1 
Route #6: 1 11 35 41 1 

Cost 824.785
Time 0.2862


 * Another infos *

 Iterations: 43 Time: 0.2862 sec - 0.0048 min - 0.0001 horas
0.0000 h 0.0048 min
Problem dimension: 43
